Route #1: 16 43 27 7 20 19 35 50
Route #2: 14 11 49 1 42 39
Route #3: 46 4 36 6 34 64 40 44 53
Route #4: 62 61 30 57 3 60
Route #5: 63 21 25 48 9
Route #6: 5 28 13
Route #7: 58 56 15 55 54 22 52 45 12
Route #8: 31 18 26 2 47 33
Route #9: 66 51 8 23 37 65 32
Route #10: 41 59 24 29 10 38 17
Cost 1033
Time 0.122674
